p cnf 123 451
-1 2 -3 0
1 -2 -3 0
-1 -2 3 0
1 2 3 0
7 5 0
7 6 0
-5 -6 -7 0
-4 -8 -9 0
4 8 -9 0
-4 8 9 0
4 -8 9 0
-7 9 -10 0
7 -9 -10 0
-7 -9 10 0
7 9 10 0
4 10 -11 0
-4 -10 -11 0
4 -10 11 0
-4 10 11 0
-8 -12 -13 0
8 12 -13 0
-8 12 13 0
8 -12 13 0
14 13 0
14 -6 0
-13 6 -14 0
15 11 0
15 -14 0
-11 14 -15 0
3 -15 -16 0
-3 15 -16 0
3 15 16 0
-3 -15 16 0
-17 -9 0
-17 -3 0
9 3 17 0
10 -17 -18 0
-10 17 -18 0
10 17 18 0
-10 -17 18 0
19 -16 0
19 18 0
16 -18 -19 0
-21 -6 -22 0
21 6 -22 0
-21 6 22 0
21 -6 22 0
-23 22 0
-23 2 0
-22 -2 23 0
-20 23 -24 0
20 -23 -24 0
-20 -23 24 0
20 23 24 0
-26 11 0
-26 25 0
-11 -25 26 0
27 24 0
27 26 0
-24 -26 -27 0
28 25 0
28 5 0
-25 -5 -28 0
-29 -27 0
-29 -28 0
27 28 29 0
-30 -4 0
-30 -7 0
4 7 30 0
31 -21 0
31 -8 0
21 8 -31 0
31 21 -32 0
-31 -21 -32 0
31 -21 32 0
-31 21 32 0
33 30 0
33 -32 0
-30 32 -33 0
35 21 0
35 -34 0
-21 34 -35 0
33 -35 -36 0
-33 35 -36 0
33 35 36 0
-33 -35 36 0
22 -13 -37 0
-22 13 -37 0
22 13 37 0
-22 -13 37 0
38 8 0
38 28 0
-8 -28 -38 0
38 -39 -40 0
-38 39 -40 0
38 39 40 0
-38 -39 40 0
37 40 -41 0
-37 -40 -41 0
37 -40 41 0
-37 40 41 0
42 4 0
42 28 0
-4 -28 -42 0
43 -41 0
43 42 0
41 -42 -43 0
-44 36 0
-44 43 0
-36 -43 44 0
-45 29 0
-45 -44 0
-29 44 45 0
-19 -45 -46 0
19 45 -46 0
-19 45 46 0
19 -45 46 0
-40 -15 -47 0
40 15 -47 0
-40 15 47 0
40 -15 47 0
48 -12 0
48 13 0
12 -13 -48 0
-50 8 0
-50 49 0
-8 -49 50 0
51 48 0
51 50 0
-48 -50 -51 0
47 51 -52 0
-47 -51 -52 0
47 -51 52 0
-47 51 52 0
54 27 0
54 53 0
-27 -53 -54 0
9 -39 -55 0
-9 39 -55 0
9 39 55 0
-9 -39 55 0
-56 -54 0
-56 55 0
54 -55 56 0
52 -56 -57 0
-52 56 -57 0
52 56 57 0
-52 -56 57 0
58 -7 0
58 -49 0
7 49 -58 0
-59 7 0
-59 20 0
-7 -20 59 0
58 59 -60 0
-58 -59 -60 0
58 -59 60 0
-58 59 60 0
-61 -60 0
-61 60 0
-25 -20 -62 0
25 20 -62 0
-25 20 62 0
25 -20 62 0
61 -62 -63 0
-61 62 -63 0
61 62 63 0
-61 -62 63 0
-64 -12 0
-64 5 0
12 -5 64 0
59 64 -65 0
-59 -64 -65 0
59 -64 65 0
-59 64 65 0
-62 -20 -66 0
62 20 -66 0
-62 20 66 0
62 -20 66 0
-67 -66 0
-67 13 0
66 -13 67 0
-65 -67 -68 0
65 67 -68 0
-65 67 68 0
65 -67 68 0
69 -63 0
69 68 0
63 -68 -69 0
57 69 -70 0
-57 -69 -70 0
57 -69 70 0
-57 69 70 0
-71 -1 0
-71 6 0
1 -6 71 0
-72 -49 0
-72 8 0
49 -8 72 0
73 -72 0
73 -6 0
72 6 -73 0
-74 62 0
-74 72 0
-62 -72 74 0
-14 -74 -75 0
14 74 -75 0
-14 74 75 0
14 -74 75 0
76 8 0
76 -12 0
-8 12 -76 0
3 2 -77 0
-3 -2 -77 0
3 -2 77 0
-3 2 77 0
-76 77 -78 0
76 -77 -78 0
-76 -77 78 0
76 77 78 0
-79 -34 0
-79 -1 0
34 1 79 0
-79 -34 -80 0
79 34 -80 0
-79 34 80 0
79 -34 80 0
-78 -80 -81 0
78 80 -81 0
-78 80 81 0
78 -80 81 0
82 75 0
82 -81 0
-75 81 -82 0
83 -73 0
83 82 0
73 -82 -83 0
84 71 0
84 -83 0
-71 83 -84 0
-85 79 0
-85 66 0
-79 -66 85 0
86 -38 0
86 85 0
38 -85 -86 0
-34 39 -87 0
34 -39 -87 0
-34 -39 87 0
34 39 87 0
-88 3 0
-88 87 0
-3 -87 88 0
-88 -6 -89 0
88 6 -89 0
-88 6 89 0
88 -6 89 0
-90 -7 0
-90 89 0
7 -89 90 0
-91 86 0
-91 -90 0
-86 90 91 0
-84 -91 -92 0
84 91 -92 0
-84 91 92 0
84 -91 92 0
-5 -37 -93 0
5 37 -93 0
-5 37 93 0
5 -37 93 0
-94 93 0
-94 11 0
-93 -11 94 0
76 -94 -95 0
-76 94 -95 0
76 94 95 0
-76 -94 95 0
10 -95 -96 0
-10 95 -96 0
10 95 96 0
-10 -95 96 0
-97 15 0
-97 96 0
-15 -96 97 0
3 -25 -98 0
-3 25 -98 0
3 25 98 0
-3 -25 98 0
-99 97 0
-99 98 0
-97 -98 99 0
-100 -49 0
-100 1 0
49 -1 100 0
-101 -99 0
-101 100 0
99 -100 101 0
102 -49 0
102 -12 0
49 12 -102 0
-103 -58 0
-103 5 0
58 -5 103 0
-6 12 -104 0
6 -12 -104 0
-6 -12 104 0
6 12 104 0
105 64 0
105 88 0
-64 -88 -105 0
106 -26 0
106 -105 0
26 105 -106 0
-107 -72 0
-107 -106 0
72 106 107 0
104 -107 -108 0
-104 107 -108 0
104 107 108 0
-104 -107 108 0
103 108 -109 0
-103 -108 -109 0
103 -108 109 0
-103 108 109 0
102 109 -110 0
-102 -109 -110 0
102 -109 110 0
-102 109 110 0
-111 -22 0
-111 -12 0
22 12 111 0
-13 88 -112 0
13 -88 -112 0
-13 -88 112 0
13 88 112 0
-113 111 0
-113 112 0
-111 -112 113 0
-114 -110 0
-114 -113 0
110 113 114 0
-101 -114 -115 0
101 114 -115 0
-101 114 115 0
101 -114 115 0
116 92 0
116 115 0
-92 -115 -116 0
-64 -22 -117 0
64 22 -117 0
-64 22 117 0
64 -22 117 0
-118 117 0
-118 -25 0
-117 25 118 0
-119 40 0
-119 49 0
-40 -49 119 0
-118 119 -120 0
118 -119 -120 0
-118 -119 120 0
118 119 120 0
116 120 -121 0
-116 -120 -121 0
116 -120 121 0
-116 120 121 0
70 -121 -122 0
-70 121 -122 0
70 121 122 0
-70 -121 122 0
-46 -122 -123 0
46 122 -123 0
-46 122 123 0
46 -122 123 0
-123 83 -42 -122 -43 76 0
44 98 -81 -66 121 0
-120 20 -72 0
-47 -109 -69 -107 -84 65 0
-96 -21 -109 117 0
-55 13 -17 87 0
-11 -59 -58 0
76 39 18 9 -69 0
67 -118 -29 115 0
-120 117 -121 20 -75 0
106 68 0
116 25 79 32 40 0
71 94 0
93 -28 0
82 -62 0
118 89 0
46 121 -21 -113 58 0
-70 -40 -4 94 102 -2 0
70 -17 0
44 58 0
61 68 -17 104 0
54 -86 12 0
-27 -105 -29 0
35 -117 -123 10 -1 0
32 -24 -77 81 11 -35 0
-8 57 112 123 -62 0
-54 5 -72 87 0
63 25 -68 103 0
61 64 0
27 -121 0
-18 -50 -66 -113 -42 15 0
-111 82 83 94 -89 -87 0
-123 10 -22 0
114 -2 -38 0
103 22 -57 93 -51 0
63 -117 0
84 -20 96 0
-46 -22 35 -60 -53 50 0
-118 -102 -4 66 81 0
78 111 -94 -89 25 -73 0
-41 -120 121 -53 -104 68 0
-77 -108 66 88 0
-19 117 -8 96 0
36 45 0
-47 58 13 33 0
83 106 -49 0
-88 11 96 67 0
-90 11 0
97 -65 30 11 0
-25 92 -110 88 0
-53 -55 -71 -78 -41 -85 0
65 72 51 0
58 77 64 0
93 -3 71 -80 0
39 -44 -50 0
-82 -81 118 -41 39 0
-27 -58 -45 -9 -32 57 0
15 -67 0
55 -21 104 0
-101 -100 69 5 65 0
-3 -66 119 -80 17 79 0
-52 -4 0
-105 -48 -112 -119 0
-9 -15 11 -104 86 0
86 42 24 74 0
28 -82 4 0
86 19 4 87 1 47 0
-33 -115 0
77 107 89 0
-120 -57 -102 -80 0
-108 122 1 -112 -90 92 0
-5 -116 -7 -82 0
-92 99 -59 0
-102 -45 -123 -44 -74 0
14 -48 74 91 -61 0
123 0
